NAME          ClpDefau  FREE
ROWS
 N  OBJROW
 L  ZMUNI1_PCT
 L  ZMUNI2_PCT
 L  ZMUNI3_PCT
 L  ZMUNI4_PCT
 L  ZMUNI5_PCT
 L  ZMUNI6_PCT
 L  ZMUNI7_PCT
 L  ZMUNI8_PCT
 L  ZMUNI9_PCT
COLUMNS
    QMUNI1 OBJROW 1.          
    QMUNI1 ZMUNI1_PCT 28926.8494  
    QMUNI1 ZMUNI2_PCT 2160.0723   
    QMUNI1 ZMUNI3_PCT 4593.0863   
    QMUNI1 ZMUNI4_PCT 3361.08208  
    QMUNI1 ZMUNI5_PCT 594.9021    
    QMUNI1 ZMUNI6_PCT 811.5768    
    QMUNI1 ZMUNI7_PCT 2785.1105   
    QMUNI1 ZMUNI8_PCT 2432.6324   
    QMUNI1 ZMUNI9_PCT 1664.7339   
    QMUNI2 OBJROW 1.          
    QMUNI2 ZMUNI1_PCT 1767.1585   
    QMUNI2 ZMUNI2_PCT 33715.8203  
    QMUNI2 ZMUNI3_PCT 2568.8172   
    QMUNI2 ZMUNI4_PCT 2674.91341  
    QMUNI2 ZMUNI5_PCT 247.9554    
    QMUNI2 ZMUNI6_PCT 300.5982    
    QMUNI2 ZMUNI7_PCT 1065.445    
    QMUNI2 ZMUNI8_PCT 1261.7111   
    QMUNI2 ZMUNI9_PCT 1129.1504   
    QMUNI3 OBJROW 1.          
    QMUNI3 ZMUNI1_PCT 4104.6143   
    QMUNI3 ZMUNI2_PCT 2594.757    
    QMUNI3 ZMUNI3_PCT 29961.586   
    QMUNI3 ZMUNI4_PCT 4973.22083  
    QMUNI3 ZMUNI5_PCT  -59.8907   
    QMUNI3 ZMUNI6_PCT 102.9015    
    QMUNI3 ZMUNI7_PCT 1431.6559   
    QMUNI3 ZMUNI8_PCT 1376.5335   
    QMUNI3 ZMUNI9_PCT 719.2612    
    QMUNI4 OBJROW 1.          
    QMUNI4 ZMUNI1_PCT 3333.8547   
    QMUNI4 ZMUNI2_PCT 3119.2779   
    QMUNI4 ZMUNI3_PCT 5542.7551   
    QMUNI4 ZMUNI4_PCT 103811.02562
    QMUNI4 ZMUNI5_PCT  -69.8089   
    QMUNI4 ZMUNI6_PCT 65.0406     
    QMUNI4 ZMUNI7_PCT 1300.8118   
    QMUNI4 ZMUNI8_PCT 1337.6236   
    QMUNI4 ZMUNI9_PCT 918.9606    
    QMUNI5 OBJROW 1.          
    QMUNI5 ZMUNI1_PCT 659.3705    
    QMUNI5 ZMUNI2_PCT 634.3841    
    QMUNI5 ZMUNI3_PCT 640.8692    
    QMUNI5 ZMUNI4_PCT 521.18302   
    QMUNI5 ZMUNI5_PCT 34441.185   
    QMUNI5 ZMUNI6_PCT 3227.7107   
    QMUNI5 ZMUNI7_PCT 1327.3239   
    QMUNI5 ZMUNI8_PCT 1337.0514   
    QMUNI5 ZMUNI9_PCT 1529.3122   
    QMUNI6 OBJROW 1.          
    QMUNI6 ZMUNI1_PCT 455.0934    
    QMUNI6 ZMUNI2_PCT 279.2358    
    QMUNI6 ZMUNI3_PCT 380.7068    
    QMUNI6 ZMUNI4_PCT 283.28896   
    QMUNI6 ZMUNI5_PCT 2908.8974   
    QMUNI6 ZMUNI6_PCT 32085.6094  
    QMUNI6 ZMUNI7_PCT 751.4954    
    QMUNI6 ZMUNI8_PCT 506.0196    
    QMUNI6 ZMUNI9_PCT 345.9931    
    QMUNI7 OBJROW 1.          
    QMUNI7 ZMUNI1_PCT 1742.363    
    QMUNI7 ZMUNI2_PCT 1144.9813   
    QMUNI7 ZMUNI3_PCT 1570.5109   
    QMUNI7 ZMUNI4_PCT 1212.12006  
    QMUNI7 ZMUNI5_PCT 438.118     
    QMUNI7 ZMUNI6_PCT 686.4548    
    QMUNI7 ZMUNI7_PCT 29636.7645  
    QMUNI7 ZMUNI8_PCT 2813.53     
    QMUNI7 ZMUNI9_PCT 1264.       
    QMUNI8 OBJROW 1.          
    QMUNI8 ZMUNI1_PCT 1270.8664   
    QMUNI8 ZMUNI2_PCT 1116.5619   
    QMUNI8 ZMUNI3_PCT 1301.0025   
    QMUNI8 ZMUNI4_PCT 1016.71219  
    QMUNI8 ZMUNI5_PCT 217.0563    
    QMUNI8 ZMUNI6_PCT 325.8705    
    QMUNI8 ZMUNI7_PCT 2527.0462   
    QMUNI8 ZMUNI8_PCT 27772.3312  
    QMUNI8 ZMUNI9_PCT 1513.4812   
    QMUNI9 OBJROW 1.          
    QMUNI9 ZMUNI1_PCT 373.4589    
    QMUNI9 ZMUNI2_PCT 729.3701    
    QMUNI9 ZMUNI3_PCT 482.5592    
    QMUNI9 ZMUNI4_PCT 417.85241   
    QMUNI9 ZMUNI5_PCT  -341.0339  
    QMUNI9 ZMUNI6_PCT  -266.7427  
    QMUNI9 ZMUNI7_PCT 395.2026    
    QMUNI9 ZMUNI8_PCT 940.8951    
    QMUNI9 ZMUNI9_PCT 25713.9206  
RHS
    RHS ZMUNI1_PCT 2.1045559996
    RHS ZMUNI2_PCT 0.8575442835
    RHS ZMUNI3_PCT 0.6251482286
    RHS ZMUNI4_PCT  -1.01502195
    RHS ZMUNI5_PCT 0.2792167242
    RHS ZMUNI6_PCT 1.0586998418
    RHS ZMUNI7_PCT  -0.72604977
    RHS ZMUNI8_PCT  -0.63650655
    RHS ZMUNI9_PCT  -0.45797309
BOUNDS
 LO BOUND QMUNI1 -0.000924701
 UP BOUND QMUNI1      1.1e+10
 LO BOUND QMUNI2 -0.000667432
 UP BOUND QMUNI2      1.1e+10
 LO BOUND QMUNI3 -0.00071164 
 UP BOUND QMUNI3      1.1e+10
 LO BOUND QMUNI4 -0.000297555
 UP BOUND QMUNI4      1.1e+10
 LO BOUND QMUNI5 -0.000529164
 UP BOUND QMUNI5      1.1e+10
 LO BOUND QMUNI6 -0.000680543
 UP BOUND QMUNI6      1.1e+10
 LO BOUND QMUNI7 -0.000353781
 UP BOUND QMUNI7      1.1e+10
 LO BOUND QMUNI8 -0.000470052
 UP BOUND QMUNI8      1.1e+10
 LO BOUND QMUNI9 -0.000538818
 UP BOUND QMUNI9      1.1e+10
ENDATA
